 Generated with fortran program by F.Brivio                                     
1.0
        6.3280000687         0.0000000000         0.0000000000
        0.0000000000         6.3280000687         0.0000000000
        0.0000000000         0.0000000000         6.3280000687
   Pb    I
    1    3
Cartesian
     3.164000034         3.164000034         3.164000034
     3.164000034         0.000000000         3.164000034
     0.000000000         3.164000034         3.164000034
     3.164000034         3.164000034         0.000000000
