CH3NH3PbI3-T     #无意义
1.0      #无意义
        8.8000001907         0.0000000000         0.0000000000     #第一个数是初始正方体的长，后两个数等于0
        0.0000000000         8.8000001907         0.0000000000     #第二个数是初始正方体的长，其余两个数等于0
        0.0000000000         0.0000000000        12.6850004196     #第三个数是初始正方体的长，其余两个数等于0
    I    #随机放原子之前，不用管
   12    #扩包之前的原子数
Cartesian   #下一行，也就是第九行开始是扩包之后的原子坐标
     1.794319990         2.605679974         0.000000000
     7.005680331         6.194319955         0.000000000
     2.605679974         1.794319990         6.342500210
     6.194319955         1.794319990         0.000000000
     2.605679974         7.005680331         0.000000000
     7.005680331         2.605679974         6.342500210
     1.794319990         6.194319955         6.342500210
     6.194319955         7.005680331         6.342500210
     0.000000000         0.000000000         3.171250105
     4.400000095         4.400000095         9.513750315
     0.000000000         0.000000000         9.513750315
     4.400000095         4.400000095         3.171250105
