POSCAR
1.0
       17.6000003815         0.0000000000         0.0000000000    #第一个数比原来扩大了n倍 （n=2）
        0.0000000000        17.6000003815         0.0000000000    #第二个数比原来扩大了n倍
        0.0000000000         0.0000000000        25.3700008392    #第三个数比原来扩大了n倍
    I      #随机放原子之前，不用管
   96      #扩包之后的原子数，原来的原子数*n的三次方
Cartesian  #下一行，也就是第九行开始是扩包之后的原子坐标
     1.794319990         2.605679974         0.000000000
     7.005680331         6.194319955         0.000000000
     2.605679974         1.794319990         6.342500210
     6.194319955         1.794319990         0.000000000
     2.605679974         7.005680331         0.000000000
     7.005680331         2.605679974         6.342500210
     1.794319990         6.194319955         6.342500210
     6.194319955         7.005680331         6.342500210
     0.000000000         0.000000000         3.171250105
     4.400000095         4.400000095         9.513750315
     0.000000000         0.000000000         9.513750315
     4.400000095         4.400000095         3.171250105
    10.594320050         2.605679974         0.000000000
    15.805680522         6.194319955         0.000000000
    11.405680427         1.794319990         6.342500210
    14.994320145         1.794319990         0.000000000
    11.405680427         7.005680331         0.000000000
    15.805680522         2.605679974         6.342500210
    10.594320050         6.194319955         6.342500210
    14.994320145         7.005680331         6.342500210
     8.800000191         0.000000000         3.171250105
    13.200000286         4.400000095         9.513750315
     8.800000191         0.000000000         9.513750315
    13.200000286         4.400000095         3.171250105
     1.794319990        11.405680427         0.000000000
     7.005680331        14.994320145         0.000000000
     2.605679974        10.594320050         6.342500210
     6.194319955        10.594320050         0.000000000
     2.605679974        15.805680522         0.000000000
     7.005680331        11.405680427         6.342500210
     1.794319990        14.994320145         6.342500210
     6.194319955        15.805680522         6.342500210
     0.000000000         8.800000191         3.171250105
     4.400000095        13.200000286         9.513750315
     0.000000000         8.800000191         9.513750315
     4.400000095        13.200000286         3.171250105
    10.594320050        11.405680427         0.000000000
    15.805680522        14.994320145         0.000000000
    11.405680427        10.594320050         6.342500210
    14.994320145        10.594320050         0.000000000
    11.405680427        15.805680522         0.000000000
    15.805680522        11.405680427         6.342500210
    10.594320050        14.994320145         6.342500210
    14.994320145        15.805680522         6.342500210
     8.800000191         8.800000191         3.171250105
    13.200000286        13.200000286         9.513750315
     8.800000191         8.800000191         9.513750315
    13.200000286        13.200000286         3.171250105
     1.794319990         2.605679974        12.685000420
     7.005680331         6.194319955        12.685000420
     2.605679974         1.794319990        19.027500629
     6.194319955         1.794319990        12.685000420
     2.605679974         7.005680331        12.685000420
     7.005680331         2.605679974        19.027500629
     1.794319990         6.194319955        19.027500629
     6.194319955         7.005680331        19.027500629
     0.000000000         0.000000000        15.856250525
     4.400000095         4.400000095        22.198750734
     0.000000000         0.000000000        22.198750734
     4.400000095         4.400000095        15.856250525
    10.594320050         2.605679974        12.685000420
    15.805680522         6.194319955        12.685000420
    11.405680427         1.794319990        19.027500629
    14.994320145         1.794319990        12.685000420
    11.405680427         7.005680331        12.685000420
    15.805680522         2.605679974        19.027500629
    10.594320050         6.194319955        19.027500629
    14.994320145         7.005680331        19.027500629
     8.800000191         0.000000000        15.856250525
    13.200000286         4.400000095        22.198750734
     8.800000191         0.000000000        22.198750734
    13.200000286         4.400000095        15.856250525
     1.794319990        11.405680427        12.685000420
     7.005680331        14.994320145        12.685000420
     2.605679974        10.594320050        19.027500629
     6.194319955        10.594320050        12.685000420
     2.605679974        15.805680522        12.685000420
     7.005680331        11.405680427        19.027500629
     1.794319990        14.994320145        19.027500629
     6.194319955        15.805680522        19.027500629
     0.000000000         8.800000191        15.856250525
     4.400000095        13.200000286        22.198750734
     0.000000000         8.800000191        22.198750734
     4.400000095        13.200000286        15.856250525
    10.594320050        11.405680427        12.685000420
    15.805680522        14.994320145        12.685000420
    11.405680427        10.594320050        19.027500629
    14.994320145        10.594320050        12.685000420
    11.405680427        15.805680522        12.685000420
    15.805680522        11.405680427        19.027500629
    10.594320050        14.994320145        19.027500629
    14.994320145        15.805680522        19.027500629
     8.800000191         8.800000191        15.856250525
    13.200000286        13.200000286        22.198750734
     8.800000191         8.800000191        22.198750734
    13.200000286        13.200000286        15.856250525
